20	5
0	8	4	3	5	1	8	6	7	2
1	1	9
2	1	14
3	1	19
4	1	12
5	1	20
6	1	21
7	1	13
8	1	17
9	1	13
10	1	20
11	1	16
12	1	15
13	1	18
14	1	18
15	1	10
16	1	10
17	1	11
18	1	21
19	1	21
20	1	21
21	0
0	0	0	0	0	0	0
1	3	4	2	3	5	4
2	6	4	1	4	2	3
3	6	1	4	3	4	5
4	2	2	3	2	5	1
5	1	5	1	3	1	1
6	9	3	5	2	3	2
7	4	2	4	2	1	1
8	4	4	2	2	5	4
9	3	3	4	3	3	1
10	1	4	4	5	2	5
11	2	5	4	3	2	2
12	9	3	3	3	2	5
13	9	1	3	3	5	4
14	4	5	2	2	4	1
15	9	4	2	1	4	1
16	2	2	4	3	4	3
17	6	2	2	2	2	4
18	3	4	4	3	1	5
19	4	5	5	2	3	3
20	8	1	5	1	4	5
21	0	0	0	0	0	0
13	14	12	13	12
